peakDumbCharging = 22200; 
Machine = anon_enum(16); 
machineSpeed = [3700,3700,3700,3700,3700,3700,3700,3700,3700,3700,3700,3700,3700,3700,3700,3700]; 
machineLoad = [3700,3700,3700,3700,3700,3700,3700,3700,3700,3700,3700,3700,3700,3700,3700,3700]; 
Car = anon_enum(25); 
demandCar = [34880,4880,9800,10680,6040,2880,12560,12360,5720,5240,18800,18360,19840,8920,4800,8640,18280,8960,12240,3720,5520,23240,22160,3440,16080]; 
arrivalCar = [75,74,74,73,72,71,70,70,68,67,67,65,64,60,51,46,45,44,44,42,42,36,34,33,28]; 
departureCar = [86,78,78,84,78,72,75,75,70,70,73,71,71,63,53,51,59,48,52,46,44,49,56,35,46]; 
